NAME : sample1
TYPE : TSP
DIMENSION : 20
EDGE_WEIGHT_TYPE : EUC_2D
NODE_COORD_SECTION
	0	-12,34	14,31
	1	-6,55	-10,89
	2	-5,3	-17,02
	3	14,96	18,36
	4	-18,48	4,69
	5	10,58	19,09
	6	15,51	-14,35
	7	7,35	-3,3
	8	2,56	-5,62
	9	7,97	-16,98
	10	-17,62	8,58
	11	0,92	16,83
	12	6,51	12,06
	13	1,05	16,83
	14	-13,47	-15,51
	15	9,56	-15,52
	16	5,2	7,45
	17	-4,66	-4,12
	18	-0,05	-0,64
	19	-9,26	15,77
EOF